p cnf 29
-2 1
-3 2
-4 3
-5 4
-6 5
-7 6
-8 7
-9 -1
-9 2
1 -2 9
-10 -3
-10 4
3 -4 10
-11 -5
-11 6
5 -6 11
-12 -7
-12 8
7 -8 12
-13 9
-13 10
-9 -10 13
-14 11
-14 12
-11 -12 14
-15 13
-15 14
-13 -14 15
15
